NAME          BLANK     FREE
ROWS
 N  OBJROW
 E  R0000000
 E  R0000001
 E  R0000002
 E  R0000003
 E  R0000004
 E  R0000005
 E  R0000006
 E  R0000007
 E  R0000008
 E  R0000009
 E  R0000010
 E  R0000011
 E  R0000012
 E  R0000013
 E  R0000014
 E  R0000015
 E  R0000016
 E  R0000017
 E  R0000018
 E  R0000019
 E  R0000020
 E  R0000021
 E  R0000022
 E  R0000023
 E  R0000024
 E  R0000025
 E  R0000026
 E  R0000027
 E  R0000028
 E  R0000029
 E  R0000030
 E  R0000031
 E  R0000032
 E  R0000033
 E  R0000034
 E  R0000035
 E  R0000036
 E  R0000037
 E  R0000038
 E  R0000039
 E  R0000040
 E  R0000041
 E  R0000042
 E  R0000043
 E  R0000044
 E  R0000045
 E  R0000046
 E  R0000047
 E  R0000048
 E  R0000049
 E  R0000050
 E  R0000051
 E  R0000052
 E  R0000053
 E  R0000054
 E  R0000055
 E  R0000056
 E  R0000057
 E  R0000058
 E  R0000059
 E  R0000060
 E  R0000061
 E  R0000062
 E  R0000063
 E  R0000064
 E  R0000065
 E  R0000066
 E  R0000067
 E  R0000068
 E  R0000069
 E  R0000070
 E  R0000071
 E  R0000072
 E  R0000073
 E  R0000074
 E  R0000075
 E  R0000076
 E  R0000077
 E  R0000078
 E  R0000079
 E  R0000080
 E  R0000081
 E  R0000082
 E  R0000083
 E  R0000084
 E  R0000085
 E  R0000086
 E  R0000087
 E  R0000088
 E  R0000089
 E  R0000090
 E  R0000091
 E  R0000092
 E  R0000093
 E  R0000094
 E  R0000095
 E  R0000096
 E  R0000097
 E  R0000098
 E  R0000099
 E  R0000100
 E  R0000101
 E  R0000102
 L  R0000103
 E  R0000104
 E  R0000105
 E  R0000106
 G  R0000107
 G  R0000108
 G  R0000109
 E  R0000110
 E  R0000111
 E  R0000112
 E  R0000113
 E  R0000114
 E  R0000115
 E  R0000116
 E  R0000117
 E  R0000118
 E  R0000119
 E  R0000120
 E  R0000121
 E  R0000122
 E  R0000123
 E  R0000124
 E  R0000125
 E  R0000126
 E  R0000127
 E  R0000128
 E  R0000129
 E  R0000130
 E  R0000131
 E  R0000132
 E  R0000133
 E  R0000134
 E  R0000135
 E  R0000136
 E  R0000137
 E  R0000138
 E  R0000139
 E  R0000140
 E  R0000141
 E  R0000142
 E  R0000143
 E  R0000144
 E  R0000145
 E  R0000146
 E  R0000147
 E  R0000148
 L  R0000149
 L  R0000150
 L  R0000151
 L  R0000152
 L  R0000153
 E  R0000154
 E  R0000155
 E  R0000156
 L  R0000157
 L  R0000158
 L  R0000159
 L  R0000160
 L  R0000161
 L  R0000162
 E  R0000163
 E  R0000164
 E  R0000165
 L  R0000166
 L  R0000167
 L  R0000168
 L  R0000169
 L  R0000170
 L  R0000171
 L  R0000172
 E  R0000173
 E  R0000174
 E  R0000175
 L  R0000176
 L  R0000177
 L  R0000178
 L  R0000179
 L  R0000180
 L  R0000181
 E  R0000182
 E  R0000183
 E  R0000184
 L  R0000185
 L  R0000186
 L  R0000187
 L  R0000188
 L  R0000189
 L  R0000190
 E  R0000191
 E  R0000192
 E  R0000193
 L  R0000194
 L  R0000195
 L  R0000196
 L  R0000197
 L  R0000198
 L  R0000199
 E  R0000200
 E  R0000201
 E  R0000202
 L  R0000203
 L  R0000204
 L  R0000205
 L  R0000206
 L  R0000207
 L  R0000208
 L  R0000209
 E  R0000210
 E  R0000211
 E  R0000212
 L  R0000213
 L  R0000214
 L  R0000215
 L  R0000216
 L  R0000217
 L  R0000218
 L  R0000219
 E  R0000220
 E  R0000221
 E  R0000222
 L  R0000223
 L  R0000224
 L  R0000225
 L  R0000226
 L  R0000227
 E  R0000228
 E  R0000229
 E  R0000230
 L  R0000231
 L  R0000232
 L  R0000233
 E  R0000234
 E  R0000235
 E  R0000236
 E  R0000237
 E  R0000238
 E  R0000239
 E  R0000240
 E  R0000241
 E  R0000242
 E  R0000243
 E  R0000244
 E  R0000245
 E  R0000246
 E  R0000247
 E  R0000248
 E  R0000249
 E  R0000250
 E  R0000251
 E  R0000252
 E  R0000253
 E  R0000254
 E  R0000255
 E  R0000256
 L  R0000257
 L  R0000258
 L  R0000259
 L  R0000260
 L  R0000261
 L  R0000262
 L  R0000263
 L  R0000264
 L  R0000265
 L  R0000266
 L  R0000267
 L  R0000268
 L  R0000269
 G  R0000270
 G  R0000271
 E  R0000272
 E  R0000273
 E  R0000274
 E  R0000275
 L  R0000276
 L  R0000277
 L  R0000278
 L  R0000279
 L  R0000280
 L  R0000281
 L  R0000282
 L  R0000283
 L  R0000284
 L  R0000285
 L  R0000286
COLUMNS
    C0000000 R0000008 -1
    C0000001 R0000061 -1 R0000062 1
    C0000002 R0000062 -1 R0000063 1
    C0000002 R0000129 1
    C0000003 R0000063 -1 R0000064 1
    C0000004 R0000064 -1 R0000065 1
    C0000004 R0000131 1
    C0000005 R0000065 -1 R0000066 1
    C0000006 R0000066 -1 R0000068 1
    C0000007 OBJROW -10000 R0000067 -1
    C0000007 R0000069 1
    C0000008 R0000068 -1 R0000069 1
    C0000008 R0000133 1
    C0000009 R0000069 -1 R0000070 1
    C0000010 R0000070 -1 R0000071 1
    C0000011 R0000008 1 R0000071 -1
    C0000012 OBJROW -15000 R0000081 -1
    C0000012 R0000284 1
    C0000013 R0000073 -1 R0000074 1
    C0000014 OBJROW -1000 R0000074 -1
    C0000014 R0000075 1 R0000270 1
    C0000015 R0000072 -1 R0000073 1
    C0000016 R0000075 -1 R0000076 1
    C0000017 R0000065 1 R0000076 -1
    C0000017 R0000135 1
    C0000018 R0000077 -1 R0000078 1
    C0000019 OBJROW -10000 R0000066 1
    C0000019 R0000078 -1
    C0000020 R0000083 -1 R0000084 1
    C0000021 R0000084 -1 R0000137 1
    C0000022 R0000073 1 R0000085 -1
    C0000023 R0000087 -1 R0000088 1
    C0000023 R0000213 1
    C0000024 R0000086 -1 R0000091 1
    C0000024 R0000203 1
    C0000025 R0000088 -1 R0000089 1
    C0000026 R0000089 -1 R0000090 1
    C0000026 R0000141 1
    C0000027 R0000090 -1 R0000092 1
    C0000028 R0000092 -1 R0000093 1
    C0000029 R0000093 -1 R0000094 1
    C0000030 R0000091 -1 R0000092 1
    C0000030 R0000143 1
    C0000031 R0000071 1 R0000094 -1
    C0000032 R0000051 -1 R0000052 1
    C0000032 R0000127 1
    C0000033 R0000052 -1 R0000053 1
    C0000034 R0000053 -1 R0000054 1
    C0000034 R0000147 1
    C0000035 R0000054 -1 R0000057 1
    C0000035 R0000145 1
    C0000036 R0000009 1 R0000057 -1
    C0000037 R0000055 -1 R0000056 1
    C0000038 R0000058 -1 R0000059 1
    C0000039 R0000060 -1
    C0000040 R0000059 -1 R0000060 1
    C0000041 R0000008 1 R0000009 -1
    C0000042 R0000009 1 R0000010 -1
    C0000043 R0000010 1 R0000012 -1
    C0000044 R0000010 1 R0000011 -1
    C0000045 R0000012 1 R0000013 -1
    C0000046 R0000013 1 R0000014 -1
    C0000046 R0000111 1
    C0000047 R0000014 1 R0000015 -1
    C0000048 R0000015 1 R0000016 -1
    C0000049 R0000015 1 R0000017 -1
    C0000050 R0000017 1 R0000018 -1
    C0000050 R0000113 1
    C0000051 R0000018 1 R0000019 -1
    C0000052 R0000019 1 R0000020 -1
    C0000053 R0000019 1 R0000021 -1
    C0000054 R0000021 1 R0000038 -1
    C0000055 R0000021 1 R0000022 -1
    C0000056 R0000022 1 R0000023 -1
    C0000057 R0000023 1 R0000024 -1
    C0000057 R0000115 1
    C0000058 R0000024 1 R0000025 -1
    C0000059 R0000025 1 R0000026 -1
    C0000060 R0000025 1 R0000027 -1
    C0000061 R0000027 1 R0000028 -1
    C0000062 R0000028 1 R0000029 -1
    C0000062 R0000117 1
    C0000063 R0000029 1 R0000030 -1
    C0000064 R0000030 1 R0000047 -1
    C0000065 R0000030 1 R0000031 -1
    C0000066 R0000031 1 R0000032 -1
    C0000067 R0000032 1 R0000033 -1
    C0000067 R0000121 1 R0000185 1
    C0000068 R0000033 1 R0000034 -1
    C0000069 R0000034 1 R0000035 -1
    C0000069 R0000119 1 R0000194 1
    C0000070 R0000017 1 R0000036 -1
    C0000071 R0000036 1 R0000037 -1
    C0000071 R0000123 1
    C0000072 R0000037 1 R0000039 -1
    C0000073 R0000039 1 R0000040 -1
    C0000074 R0000022 1 R0000041 -1
    C0000075 R0000042 1 R0000043 -1
    C0000075 R0000157 1
    C0000076 R0000041 1 R0000042 -1
    C0000076 R0000125 1
    C0000077 R0000027 1 R0000044 -1
    C0000078 R0000044 1 R0000045 -1
    C0000079 R0000045 1 R0000046 -1
    C0000079 R0000139 1 R0000166 1
    C0000080 R0000031 1 R0000048 -1
    C0000080 R0000176 1
    C0000081 R0000048 1 R0000049 -1
    C0000082 R0000049 1 R0000050 -1
    C0000086 R0000097 1 R0000098 -1
    C0000087 R0000096 1 R0000097 -1
    C0000087 R0000099 -0.5
    C0000088 R0000098 -1 R0000243 1
    C0000089 R0000098 1 R0000245 1
    C0000090 R0000098 1 R0000244 1
    C0000091 R0000101 1 R0000102 -1
    C0000092 R0000100 1 R0000101 -1
    C0000093 R0000105 1 R0000106 -1
    C0000094 R0000104 1 R0000105 -1
    C0000095 OBJROW -10000 R0000008 -1
    C0000095 R0000286 1
    C0000096 OBJROW -45000 R0000080 -1
    C0000096 R0000096 -1 R0000238 -0.01
    C0000096 R0000239 -0.19 R0000240 -0.11
    C0000096 R0000241 -0.04
    C0000097 R0000063 -1 R0000072 1
    C0000098 R0000066 -1 R0000067 1
    C0000099 R0000069 -1 R0000080 1
    C0000100 R0000080 -1 R0000082 1
    C0000101 R0000080 -1 R0000081 1
    C0000102 OBJROW -46000 R0000100 -1
    C0000102 R0000103 1 R0000250 -0.8
    C0000102 R0000285 1
    C0000103 OBJROW -45000 R0000082 -1
    C0000103 R0000100 -1
    C0000104 OBJROW -45000 R0000080 -1
    C0000104 R0000104 -1
    C0000105 OBJROW -45000 R0000079 -1
    C0000105 R0000096 -1 R0000099 1
    C0000105 R0000238 -0.01 R0000239 -0.19
    C0000105 R0000240 -0.11 R0000241 -0.04
    C0000106 R0000075 -1 R0000077 1
    C0000107 R0000077 -1 R0000079 1
    C0000108 R0000083 -1 R0000085 1
    C0000108 R0000274 1 R0000278 1
    C0000108 R0000279 1 R0000280 1
    C0000109 OBJROW -99999 R0000091 -1
    C0000109 R0000283 1 R0000286 1
    C0000110 OBJROW -99999 R0000089 -1
    C0000110 R0000281 1 R0000282 -0.2
    C0000110 R0000286 1
    C0000111 OBJROW -35000 R0000053 -1
    C0000111 R0000058 1 R0000265 1
    C0000112 R0000054 -1 R0000055 1
    C0000112 R0000267 1
    C0000113 OBJROW -1000 R0000055 -1
    C0000113 R0000057 1
    C0000114 OBJROW -5100 R0000056 -1
    C0000114 R0000095 1
    C0000115 OBJROW -5000 R0000056 -1
    C0000115 R0000266 1
    C0000116 OBJROW -1000 R0000011 1
    C0000116 R0000014 -1 R0000257 1
    C0000117 OBJROW -1000 R0000016 1
    C0000117 R0000018 -1 R0000258 1
    C0000118 OBJROW -1000 R0000020 1
    C0000118 R0000024 -1 R0000261 1
    C0000119 OBJROW -10000 R0000026 1
    C0000119 R0000029 -1 R0000262 1
    C0000120 OBJROW -1000 R0000034 1
    C0000120 R0000035 -1
    C0000121 OBJROW -1000 R0000037 -1
    C0000121 R0000038 1 R0000259 1
    C0000122 OBJROW -1000 R0000040 1
    C0000122 R0000042 -1 R0000260 1
    C0000123 OBJROW -1000 R0000047 1
    C0000123 R0000048 -1 R0000263 1
    C0000124 OBJROW -1000 R0000033 -1
    C0000124 R0000050 1 R0000264 1
    C0000126 OBJROW 9999 R0000098 -1
    C0000126 R0000107 1 R0000110 -1
    C0000127 OBJROW 9999 R0000102 -1
    C0000127 R0000108 1 R0000110 -1
    C0000128 R0000106 -1 R0000109 1
    C0000128 R0000110 -1
    C0000129 R0000110 1
    C0000130 R0000000 1
    C0000131 OBJROW -11000 R0000111 -1
    C0000131 R0000112 1
    C0000132 R0000112 1
    C0000133 R0000111 -1
    C0000134 R0000001 1
    C0000135 OBJROW -11000 R0000113 -1
    C0000135 R0000114 1
    C0000136 R0000114 1
    C0000137 R0000113 -1
    C0000138 R0000002 1
    C0000139 OBJROW -51000 R0000115 -1
    C0000139 R0000116 1
    C0000140 R0000116 1
    C0000141 R0000115 -1
    C0000142 R0000003 1
    C0000143 OBJROW -51000 R0000117 -1
    C0000143 R0000118 1
    C0000144 R0000118 1
    C0000145 R0000117 -1
    C0000146 R0000004 1
    C0000147 OBJROW -11000 R0000119 -1
    C0000147 R0000120 1
    C0000148 R0000120 1
    C0000149 R0000119 -1
    C0000150 OBJROW -51000 R0000121 -1
    C0000150 R0000122 1
    C0000151 R0000122 1
    C0000152 R0000121 -1
    C0000153 R0000005 1
    C0000154 OBJROW -22000 R0000123 -1
    C0000154 R0000124 1
    C0000155 R0000124 1
    C0000156 R0000123 -1
    C0000157 OBJROW -51000 R0000125 -1
    C0000157 R0000126 1
    C0000158 R0000126 1
    C0000159 R0000125 -1
    C0000160 OBJROW -55000 R0000139 -1
    C0000160 R0000140 1
    C0000161 R0000140 1
    C0000162 R0000139 -1
    C0000163 R0000006 1
    C0000164 OBJROW -51000 R0000127 -1
    C0000164 R0000128 1
    C0000165 R0000128 1
    C0000166 R0000127 -1
    C0000167 OBJROW -51000 R0000147 -1
    C0000167 R0000148 1
    C0000168 R0000148 1
    C0000169 R0000147 -1
    C0000170 R0000145 -1 R0000146 1
    C0000171 R0000146 1
    C0000172 R0000145 -1
    C0000173 OBJROW -2000000 R0000143 -1
    C0000173 R0000144 1
    C0000174 R0000144 1
    C0000175 OBJROW 3000 R0000143 -1
    C0000176 OBJROW -1100000 R0000141 -1
    C0000176 R0000142 1
    C0000177 R0000142 1
    C0000178 R0000141 -1
    C0000179 OBJROW -55000 R0000129 -1
    C0000179 R0000130 1
    C0000180 R0000130 1
    C0000181 R0000129 -1
    C0000182 OBJROW -55000 R0000131 -1
    C0000182 R0000132 1
    C0000183 R0000132 1
    C0000184 R0000131 -1
    C0000185 OBJROW -55000 R0000133 -1
    C0000185 R0000134 1
    C0000186 R0000134 1
    C0000187 R0000133 -1
    C0000188 OBJROW -55000 R0000135 -1
    C0000188 R0000136 1
    C0000189 R0000136 1
    C0000190 R0000135 -1
    C0000191 OBJROW -11000 R0000137 -1
    C0000191 R0000138 1
    C0000192 R0000138 1
    C0000193 R0000137 -1
    C0000194 R0000007 1
    C0000195 OBJROW -32526881.72258065 R0000177 1
    C0000195 R0000182 -1
    C0000196 OBJROW -813172.0430645162 R0000178 1
    C0000196 R0000182 -1
    C0000197 OBJROW -813172.0430645162 R0000179 1
    C0000197 R0000182 -1
    C0000198 OBJROW -813172.0430645162 R0000180 1
    C0000198 R0000182 -1
    C0000199 OBJROW 16263440.86129032 R0000181 1
    C0000199 R0000182 -1
    C0000200 R0000033 -16.26344086129032 R0000182 1
    C0000200 R0000183 -8.756199940699712 R0000235 -1
    C0000202 R0000033 -1 R0000184 61.48760330171982
    C0000202 R0000236 -1
    C0000203 R0000183 1 R0000184 -0.2512500087420146
    C0000204 OBJROW -32526881.72258065 R0000158 1
    C0000204 R0000163 -1
    C0000205 OBJROW -813172.0430645162 R0000159 1
    C0000205 R0000163 -1
    C0000206 OBJROW -813172.0430645162 R0000160 1
    C0000206 R0000163 -1
    C0000207 OBJROW -813172.0430645162 R0000161 1
    C0000207 R0000163 -1
    C0000208 OBJROW 16263440.86129032 R0000162 1
    C0000208 R0000163 -1
    C0000209 R0000046 -16.26344086129032 R0000163 1
    C0000209 R0000164 -41.41592920353979 R0000167 1
    C0000209 R0000235 -1
    C0000211 R0000046 -1 R0000165 61.48760330171982
    C0000211 R0000236 -1
    C0000212 R0000164 1 R0000165 -0.2425000071525574
    C0000213 OBJROW -32526881.72258065 R0000149 1
    C0000213 R0000154 -1
    C0000214 OBJROW -813172.0430645162 R0000150 1
    C0000214 R0000154 -1
    C0000215 OBJROW -813172.0430645162 R0000151 1
    C0000215 R0000154 -1
    C0000216 OBJROW -813172.0430645162 R0000152 1
    C0000216 R0000154 -1
    C0000217 OBJROW 16263440.86129032 R0000153 1
    C0000217 R0000154 -1
    C0000218 R0000043 -16.26344086129032 R0000154 1
    C0000218 R0000155 -6.991234090770207 R0000235 -1
    C0000220 R0000043 -1 R0000156 61.48760330171982
    C0000220 R0000236 -1
    C0000221 R0000155 1 R0000156 -0.2025000055631002
    C0000222 OBJROW -32526881.72258065 R0000168 1
    C0000222 R0000173 -1
    C0000223 OBJROW -813172.0430645162 R0000169 1
    C0000223 R0000173 -1
    C0000224 OBJROW -813172.0430645162 R0000170 1
    C0000224 R0000173 -1
    C0000225 OBJROW -813172.0430645162 R0000171 1
    C0000225 R0000173 -1
    C0000226 OBJROW 16263440.86129032 R0000172 1
    C0000226 R0000173 -1
    C0000227 R0000048 -16.26344086129032 R0000173 1
    C0000227 R0000174 -32.06412825651304 R0000235 -1
    C0000229 R0000048 -1 R0000175 61.48760330171982
    C0000229 R0000236 -1
    C0000230 R0000174 1 R0000175 -0.2549999952316284
    C0000231 OBJROW -32526881.72258065 R0000195 1
    C0000231 R0000200 -1
    C0000232 OBJROW -813172.0430645162 R0000196 1
    C0000232 R0000200 -1
    C0000233 OBJROW -813172.0430645162 R0000197 1
    C0000233 R0000200 -1
    C0000234 OBJROW -813172.0430645162 R0000198 1
    C0000234 R0000200 -1
    C0000235 OBJROW 16263440.86129032 R0000199 1
    C0000235 R0000200 -1
    C0000236 R0000086 -16.26344086129032 R0000200 1
    C0000236 R0000201 -24.2350343743143 R0000204 1
    C0000236 R0000235 -1
    C0000238 R0000086 -1 R0000202 61.48760330171982
    C0000238 R0000236 -1
    C0000239 R0000201 1 R0000202 -0.2391666571299235
    C0000240 OBJROW -32526881.72258065 R0000205 1
    C0000240 R0000210 -1
    C0000241 OBJROW -16263440.86129032 R0000206 1
    C0000241 R0000210 -1
    C0000242 OBJROW -16263440.86129032 R0000207 1
    C0000242 R0000210 -1
    C0000243 OBJROW -813172.0430645162 R0000208 1
    C0000243 R0000210 -1
    C0000244 OBJROW 16263440.86129032 R0000209 1
    C0000244 R0000210 -1
    C0000245 R0000087 -16.26344086129032 R0000210 1
    C0000245 R0000211 -18.31905128310224 R0000214 1
    C0000245 R0000235 -1
    C0000247 R0000087 -1 R0000212 61.48760330171982
    C0000247 R0000236 -1
    C0000248 R0000211 1 R0000212 -0.2341666618982951
    C0000249 OBJROW -32526881.72258065 R0000215 1
    C0000249 R0000220 -1
    C0000250 OBJROW -975806.4516774194 R0000216 1
    C0000250 R0000220 -1
    C0000251 OBJROW -650537.6344516129 R0000217 1
    C0000251 R0000220 -1
    C0000252 OBJROW -325268.8172258065 R0000218 1
    C0000252 R0000220 -1
    C0000253 OBJROW 1626344.086129032 R0000219 1
    C0000253 R0000220 -1
    C0000254 R0000061 -16.26344086129032 R0000220 1
    C0000254 R0000221 -11.23921522463741 R0000235 -1
    C0000254 R0000268 1 R0000269 1
    C0000255 R0000061 -1 R0000222 61.48760330171982
    C0000255 R0000236 -1
    C0000256 R0000221 1 R0000222 -0.2245833277702332
    C0000257 OBJROW -32526881.72258065 R0000186 1
    C0000257 R0000191 -1
    C0000258 OBJROW -975806.4516774194 R0000187 1
    C0000258 R0000191 -1
    C0000259 OBJROW -975806.4516774194 R0000188 1
    C0000259 R0000191 -1
    C0000260 OBJROW -975806.4516774194 R0000189 1
    C0000260 R0000191 -1
    C0000261 OBJROW 16263440.86129032 R0000190 1
    C0000261 R0000191 -1
    C0000262 R0000035 -16.26344086129032 R0000191 1
    C0000262 R0000192 -240.5000000000002 R0000235 -1
    C0000264 R0000035 -1 R0000193 61.48760330171982
    C0000264 R0000236 -1
    C0000265 R0000192 1 R0000193 -0.2333333293596903
    C0000266 OBJROW -32526881.72258065 R0000223 1
    C0000266 R0000228 -1
    C0000267 OBJROW -975806.4516774194 R0000224 1
    C0000267 R0000228 -1
    C0000268 OBJROW -650537.6344516129 R0000225 1
    C0000268 R0000228 -1
    C0000269 OBJROW -65053.7634451613 R0000226 1
    C0000269 R0000228 -1
    C0000270 OBJROW 1626344.086129032 R0000227 1
    C0000270 R0000228 -1
    C0000271 R0000074 -16.26344086129032 R0000228 1
    C0000271 R0000229 -10 R0000235 -1
    C0000271 R0000268 1 R0000271 1
    C0000272 R0000074 -1 R0000230 61.48760330171982
    C0000272 R0000236 -1
    C0000273 R0000229 1 R0000230 -0.2595833341280619
    C0000274 OBJROW -32526881.72258065 R0000231 1
    C0000274 R0000234 -1
    C0000275 OBJROW -650537.6344516129 R0000232 1
    C0000275 R0000234 -1
    C0000276 OBJROW -487903.2258387097 R0000233 1
    C0000276 R0000234 -1
    C0000277 R0000051 -16.26344086129032 R0000234 1
    C0000277 R0000235 -1
    C0000278 R0000235 1
    C0000279 R0000236 1
    C0000280 OBJROW -99999 R0000090 1
    C0000280 R0000282 1 R0000286 -1
    C0000281 OBJROW -99999 R0000092 1
    C0000281 R0000237 1 R0000286 -1
    C0000285 R0000238 1 R0000242 -1
    C0000286 R0000239 1 R0000242 -1
    C0000287 R0000240 1 R0000242 -1
    C0000288 R0000241 1 R0000242 -1
    C0000289 R0000097 1 R0000242 1
    C0000290 R0000248 1 R0000252 -1
    C0000291 R0000246 1 R0000248 -1
    C0000292 R0000247 1 R0000248 -1
    C0000293 R0000103 -1 R0000251 1
    C0000293 R0000252 -1
    C0000294 R0000249 1 R0000251 -1
    C0000295 R0000250 1 R0000251 -1
    C0000296 R0000101 1 R0000252 1
    C0000297 R0000255 1 R0000256 -1
    C0000298 R0000253 1 R0000255 -1
    C0000299 R0000254 1 R0000255 -1
    C0000300 R0000105 1 R0000256 1
    C0000301 R0000272 1
    C0000302 R0000273 1
    C0000303 R0000268 -0.06148760330171982 R0000270 -1
    C0000303 R0000274 -1
    C0000304 R0000271 -0.06148760330171982 R0000274 -1
    C0000304 R0000276 1 R0000277 1
    C0000305 R0000275 1
RHS
    RHS R0000000 -9999 R0000001 50
    RHS R0000002 140 R0000003 150
    RHS R0000004 140 R0000005 35
    RHS R0000006 -8233.870781057452 R0000007 -9999
    RHS R0000014 -1098.357990296493 R0000033 -17358.04800775143
    RHS R0000035 -337.5580349819776 R0000039 -119.7590282606529
    RHS R0000043 -1760.880082128926 R0000044 -918.3550204607343
    RHS R0000046 -430.832472696384 R0000048 -861.482283818382
    RHS R0000051 -50.27209229058221 R0000053 -159.9621242198262
    RHS R0000054 -245.7124971736807 R0000057 -115.0221190220987
    RHS R0000061 -1605.310940079537 R0000066 -192.9990996724237
    RHS R0000070 -43.51940315544569 R0000074 -1000.178979964139
    RHS R0000083 -426.5080603502118 R0000086 -1361.792875035143
    RHS R0000087 -925.0849050109945 R0000093 -11.53864883042812
    RHS R0000094 -2224.530047902164 R0000102 -7.843952742673489
    RHS R0000103 1.490351021107963 R0000107 12.34542159192892
    RHS R0000112 50 R0000114 140
    RHS R0000116 150 R0000118 140
    RHS R0000120 4 R0000122 35
    RHS R0000124 8 R0000126 8
    RHS R0000128 2.1 R0000130 5
    RHS R0000132 5 R0000134 5
    RHS R0000136 8 R0000138 10
    RHS R0000140 20 R0000142 2
    RHS R0000144 23 R0000148 7
    RHS R0000152 96.3 R0000153 6.700000000000003
    RHS R0000155 1082.651161970187 R0000156 353.6372953130116
    RHS R0000157 99999 R0000161 22.6
    RHS R0000165 235.0046555198814 R0000166 99999
    RHS R0000167 100022.3990001678 R0000168 29
    RHS R0000171 10.6 R0000172 10.3
    RHS R0000175 358.0588294826958 R0000176 99999
    RHS R0000177 567 R0000180 575.9000000000001
    RHS R0000183 17113.40907525902 R0000184 6631.675294231572
    RHS R0000185 99999 R0000189 8
    RHS R0000190 15.9 R0000193 961.8958089096916
    RHS R0000194 99999 R0000195 37.677
    RHS R0000198 46.694 R0000201 1927.446850441247
    RHS R0000202 930.4742047110493 R0000203 99999
    RHS R0000204 100080 R0000205 2.208
    RHS R0000207 27.792 R0000208 25.477
    RHS R0000211 564.0159701719738 R0000212 372.2975579265324
    RHS R0000213 9999 R0000214 100055
    RHS R0000215 0.5 R0000216 53.85
    RHS R0000217 24.31 R0000218 9.524000000000001
    RHS R0000219 1.620000000000005 R0000221 629.1047741117949
    RHS R0000222 342.1777199226381 R0000223 0.571
    RHS R0000224 35.627 R0000225 19.122
    RHS R0000226 6.384 R0000227 2.633999999999993
    RHS R0000229 -5 R0000230 149.2500295916875
    RHS R0000231 0.25 R0000232 5.893
    RHS R0000237 0.4391129032548388 R0000243 1.804886197650427
    RHS R0000244 36.09772395300853 R0000257 3700
    RHS R0000258 3510 R0000259 384
    RHS R0000260 400 R0000261 2880
    RHS R0000262 2410 R0000263 2578
    RHS R0000264 1620 R0000265 45
    RHS R0000266 0.9107526882322582 R0000267 20
    RHS R0000268 100136.5839958191 R0000269 100078.5879974365
    RHS R0000272 -9285.724553256219 R0000273 -9284.137776396819
    RHS R0000275 -10593.98181814248 R0000276 300
    RHS R0000277 172863.8172150903 R0000278 470
    RHS R0000279 208.3333333333333 R0000280 600
    RHS R0000281 33.17741935703226 R0000283 0.9836129032908387
    RHS R0000284 262 R0000285 11.70967742012903
    RHS R0000286 121.9758064596774
BOUNDS
 UP BOUND C0000000 99999
 UP BOUND C0000001 99999
 UP BOUND C0000002 99999
 UP BOUND C0000003 99999
 UP BOUND C0000004 99999
 UP BOUND C0000005 99999
 UP BOUND C0000006 99999
 UP BOUND C0000007 99999
 UP BOUND C0000008 99999
 UP BOUND C0000009 99999
 UP BOUND C0000010 99999
 UP BOUND C0000011 99999
 UP BOUND C0000012 99999
 UP BOUND C0000013 99999
 UP BOUND C0000014 99999
 UP BOUND C0000015 99999
 UP BOUND C0000016 99999
 UP BOUND C0000017 99999
 UP BOUND C0000018 620
 UP BOUND C0000019 99999
 UP BOUND C0000020 99999
 UP BOUND C0000021 99999
 UP BOUND C0000022 99999
 UP BOUND C0000023 99999
 UP BOUND C0000024 99999
 UP BOUND C0000025 99999
 UP BOUND C0000026 99999
 UP BOUND C0000027 99999
 UP BOUND C0000028 99999
 UP BOUND C0000029 99999
 UP BOUND C0000030 99999
 UP BOUND C0000031 99999
 UP BOUND C0000032 99999
 UP BOUND C0000033 99999
 UP BOUND C0000034 99999
 UP BOUND C0000035 99999
 UP BOUND C0000036 99999
 UP BOUND C0000037 99999
 UP BOUND C0000038 125
 UP BOUND C0000039 125
 UP BOUND C0000040 125
 UP BOUND C0000041 99999
 UP BOUND C0000042 99999
 UP BOUND C0000043 99999
 UP BOUND C0000044 99999
 UP BOUND C0000045 99999
 UP BOUND C0000046 99999
 UP BOUND C0000047 99999
 UP BOUND C0000048 99999
 UP BOUND C0000049 99999
 UP BOUND C0000050 99999
 UP BOUND C0000051 99999
 UP BOUND C0000052 99999
 UP BOUND C0000053 99999
 UP BOUND C0000054 99999
 UP BOUND C0000055 99999
 UP BOUND C0000056 99999
 UP BOUND C0000057 99999
 UP BOUND C0000058 99999
 UP BOUND C0000059 99999
 UP BOUND C0000060 99999
 UP BOUND C0000061 99999
 UP BOUND C0000062 99999
 UP BOUND C0000063 99999
 UP BOUND C0000064 99999
 UP BOUND C0000065 99999
 UP BOUND C0000066 99999
 UP BOUND C0000067 99999
 UP BOUND C0000068 99999
 UP BOUND C0000069 99999
 UP BOUND C0000070 99999
 UP BOUND C0000071 99999
 UP BOUND C0000072 99999
 UP BOUND C0000073 99999
 UP BOUND C0000074 99999
 UP BOUND C0000075 99999
 UP BOUND C0000076 99999
 UP BOUND C0000077 99999
 UP BOUND C0000078 99999
 UP BOUND C0000079 99999
 UP BOUND C0000080 99999
 UP BOUND C0000081 99999
 UP BOUND C0000082 99999
 UP BOUND C0000097 600
 UP BOUND C0000098 660
 UP BOUND C0000099 300
 UP BOUND C0000101 260
 UP BOUND C0000102 25
 UP BOUND C0000108 848
 UP BOUND C0000111 125
 UP BOUND C0000112 65
 UP BOUND C0000120 200
 FR BOUND C0000202 1e+30
 FR BOUND C0000211 1e+30
 FR BOUND C0000220 1e+30
 FR BOUND C0000229 1e+30
 FR BOUND C0000238 1e+30
 FR BOUND C0000247 1e+30
 FR BOUND C0000255 1e+30
 FR BOUND C0000264 1e+30
 FR BOUND C0000272 1e+30
 UP BOUND C0000303 300
 UP BOUND C0000304 300
ENDATA
